unsat
(:binary-propagations  13
 :conflicts            1
 :final-checks         1
 :max-generation       1
 :max-memory           23.25
 :memory               20.90
 :mk-bool-var          482
 :mk-clause            182
 :mk-clause-binary     526
 :num-allocs           6029059
 :num-checks           1
 :propagations         13
 :quant-instantiations 98
 :restarts             1
 :rlimit-count         60613
 :time                 0.02)
